benchmarks/VRPTW/TSPTW/solution/n20w100.003.txt.solution
1 5 19 17 9 3 11 20 6 18 15 12 7 16 4 8 13 10 2 21 14 
310
